NAME : LPS-n17-m299
COMMENT : (Lartu-Peter-Santi Plot, instance 5899 out of 39200. 17 customers.)
TYPE : CVRP
DIMENSION : 17
EDGE_WEIGHT_TYPE : EUC_2D
CAPACITY : 94
NODE_COORD_SECTION
 1 41 93
 2 82 0
 3 99 25
 4 12 50
 5 19 78
 6 87 78
 7 98 64
 8 9 100
 9 10 73
 10 27 26
 11 59 23
 12 87 66
 13 13 82
 14 12 40
 15 15 68
 16 23 50
 17 58 59
DEMAND_SECTION
1 0
2 38
3 58
4 11
5 15
6 8
7 18
8 31
9 89
10 52
11 35
12 46
13 85
14 61
15 27
16 91
17 81
DEPOT_SECTION
 1
 -1
EOF
